# A simple Psi 4 input script to compute EP2 using spin-orbitals 
# From Szabo and Ostlund page 390
# Requirements scipy 0.13.0+ and numpy 1.7.2+
#
# Algorithms were taken directly from Daniel Crawford's programming website:
# http://sirius.chem.vt.edu/wiki/doku.php?id=crawdad:programming
# Special thanks to Rob Parrish for initial assistance with libmints
#
# Created by: Daniel G. A. Smith
# Date: 7/29/14
# License: GPL v3.0
#
import itertools as it
import time
import numpy as np
from scipy import linalg as SLA
np.set_printoptions(precision=5, linewidth=200, suppress=True)

# Memory for Psi4 in GB
memory 2 GB

# Memory for numpy in GB
numpy_memory = 2

# Number of orbitals below the HOMO to compute
num_orbs = 5

molecule mol {
O
H 1 1.1
H 1 1.1 2 104
symmetry c1
}

set {
basis 6-31G
scf_type pk
mp2_type conv
freeze_core false
e_convergence 1e-8
d_convergence 1e-8
}

### Start boilerplate
print '\nStarting RHF and integral build...'
t = time.time()

# First compute RHF energy using Psi4
energy('RHF')

# Grab data from wavfunction class 
wfn = wavefunction()
# Double occupied orbitals
ndocc = wfn.doccpi()[0]
# Number of molecular orbitals
nmo = wfn.nmo()
# SCF energy
SCF_E = wfn.energy()
# Orbital energies
eps = np.array(wfn.epsilon_a())

# Compute size of ERI tensor in GB
ERI_Size = (nmo**4)*8.0 / 1E9
print "Size of the ERI tensor will be %4.2f GB." % ERI_Size
memory_footprint = ERI_Size*2.5
if memory_footprint > numpy_memory:
    clean()
    raise Exception("Estimated memory utilization (%4.2f GB) exceeds numpy_memory limit of %4.2f GB." % (memory_footprint, numpy_memory))

t=time.time()
# Grab MO integral from NumpyHelper
nph = NumpyHelper()
MO = np.array(nph.mo_spin_eri())

print '\n..total time taken for RHF and integral transormation: %.3f seconds.' % (time.time()-t)
print 'Shape of spin orbital integrals: %s \n' % str(MO.shape)
### End boilerplate

# Update nocc and nvirt
nocc = ndocc * 2
nvirt = MO.shape[0] - nocc

# Build epsilon tensor
eps = np.repeat(eps, 2)
eocc = eps[:nocc]
evirt = eps[nocc:]

# Create occupied and virtual slices
o = slice(0, nocc)
v = slice(nocc, MO.shape[0])

if num_orbs > nocc:
    num_orbs = nocc

def get_slice(char, orb):
    """Returns either occupied, orbital, or virtual slice"""
    if char in 'abcdefgh':
        return slice(0, nocc)
    elif char in 'ij':
        return orb
    else:
        return slice(nocc, MO.shape[0])

def EP_term(n, orbital, factor, string, eps_views):
    """
    n = EPn order of theory
    orbital = orbital number
    factor = symmetry considerations
    string = summation string MO tensor than energy denominators
            - First n terms will be MO views (numerator)
            - Last n-1 terms will be epsilon view (denominator)
    eps_view = epsilon views
    Continously writing views seem like too much effort, why not automate the process?
    """

    #if not isinstance(eps_views, list):
    #    eps_view = list(eps_views)

    # Get slices
    slices = string.split(',')
    if len(slices)!=(n*2-1):
        clean()
        raise Exception('Number of terms does not match the order of pertubation theory')

    # Create views
    views = []

    # MO views
    for term in range(n):
        tmp_slice = slices[term]
        tmp_slice = [get_slice(x, orbital) for x in tmp_slice]
        views.append(MO[tmp_slice[0], tmp_slice[1], tmp_slice[2], tmp_slice[3]])

    # Add epsilon views
    views = views + eps_views

    # Remove i and j indices
    string = string.replace('i','')
    string = string.replace('j','')

    # Compute term!
    string += '->'
    term = factor * np.einsum(string, *views)
    return term


ep2_arr = []
ep3_arr = []
for orbital in range(nocc-num_orbs*2, nocc, 2):
    E = eps[orbital]
    ep2_conv = False
    ep3_conv = False

    # EP2
    for ep_iter in range(50):
        Eold = E
    
        # Build energy denominators
        epsilon1 = 1/(E + eocc.reshape(-1, 1, 1) - evirt.reshape(-1, 1) - evirt)
        epsilon2 = 1/(E + evirt.reshape(-1, 1, 1) - eocc.reshape(-1, 1) - eocc)
        epsilon1_2 = np.power(epsilon1, 2) 
        epsilon2_2 = np.power(epsilon2, 2) 
    
        # Compute sigma's
        sigma1 = EP_term(2, orbital, 0.5, 'iapq,pqja,apq', [epsilon1])
        sigma2 = EP_term(2, orbital, 0.5, 'ipab,abip,pab', [epsilon2])
        Enew = eps[orbital] + sigma1 + sigma2

        # Break if below threshold
        if abs(Enew - Eold) < 1.e-4:
            ep2_arr.append(Enew * 27.21138505)
            ep2_conv = True
            break

        # # Build derivatives    
        sigma_deriv1 = EP_term(2, orbital, -0.5, 'iapq,pqja,apq', [epsilon1_2])
        sigma_deriv2 = EP_term(2, orbital, -0.5, 'ipab,abip,pab', [epsilon2_2])
        deriv = 1 - sigma_deriv1 - sigma_deriv2
    
        # Newton-Raphson update
        E = Eold - (E - Enew) / deriv


    if ep2_conv is False:
        ep2_arr.append(E)
        print 'WARNING: EP2 for orbital HOMO - %d did not converged' % (ndocc - orbital/2 - 1)

    EP2 = E
    # EP3 

    # EP3 self energy independant terms
    eps_ov = 1/(eocc.reshape(-1, 1) - evirt)
    eps_oovv = 1/(eocc.reshape(-1, 1, 1, 1) + eocc.reshape(-1, 1, 1) - evirt.reshape(-1, 1) - evirt)
    eps_vvoo = 1/(evirt.reshape(-1, 1, 1, 1) + evirt.reshape(-1, 1, 1) - eocc.reshape(-1, 1) - eocc)

    eps_oovv_2 = np.power(eps_oovv, 2)
    eps_vvoo_2 = np.power(eps_vvoo, 2)


    ep3_const  = EP_term(3, orbital,  0.5, 'ipja,qrpb,abqr,ap,abqr', [eps_ov, eps_oovv])
    ep3_const += EP_term(3, orbital, -0.5, 'ipjb,bqac,acpq,bp,acpq', [eps_ov, eps_oovv])

    ep3_const += EP_term(3, orbital,  0.5, 'prab,iqjp,abqr,abpr,abqr', [eps_oovv, eps_oovv])
    ep3_const += EP_term(3, orbital, -0.5, 'pqbc,ibja,acpq,bcpq,acpq', [eps_oovv, eps_oovv])

    ep3_const += EP_term(3, orbital,  0.5, 'prab,qbpr,iajq,abpr,aq', [eps_oovv, eps_ov])
    ep3_const += EP_term(3, orbital, -0.5, 'pqbc,bcaq,iajp,bcpq,ap', [eps_oovv, eps_ov])

    # Create KP-EP2 average geuss for EP3
    E = (EP2 + eps[orbital]) / 2 
    for ep_iter in range(50):
        Eold = E        

        # Compute energy denominators
        eps_eovv = 1/(E + eocc.reshape(-1, 1, 1) - evirt.reshape(-1, 1) - evirt)
        eps_evoo = 1/(E + evirt.reshape(-1, 1, 1) - eocc.reshape(-1, 1) - eocc)
        eps_eovv_2 = np.power(eps_eovv, 2)
        eps_evoo_2 = np.power(eps_evoo, 2)


        Enew = eps[orbital] + ep3_const
        Ederiv = 0
    
        # EP2
        Enew += EP_term(2, orbital, 0.5, 'iapq,pqja,apq', [eps_eovv])
        Ederiv += EP_term(2, orbital, -0.5, 'iapq,pqja,apq', [eps_eovv_2])

        Enew += EP_term(2, orbital, 0.5, 'ipab,abip,pab', [eps_evoo])
        Ederiv += EP_term(2, orbital, -0.5, 'ipab,abip,pab', [eps_evoo_2])

        
        #EP3
        Enew += EP_term(3, orbital,  0.25, 'iaqs,qspr,prja,apr,aqs', [eps_eovv, eps_eovv]) 
        Ederiv += EP_term(3, orbital,  -0.25, 'iaqs,qspr,prja,apr,aqs', [eps_eovv_2, eps_eovv]) 
        Ederiv += EP_term(3, orbital,  -0.25, 'iaqs,qspr,prja,apr,aqs', [eps_eovv, eps_eovv_2]) 

        Enew += EP_term(3, orbital, -1.00, 'iaqr,qbpa,prjb,bpr,aqr', [eps_eovv, eps_eovv]) 
        Ederiv += EP_term(3, orbital,  1.00, 'iaqr,qbpa,prjb,bpr,aqr', [eps_eovv_2, eps_eovv]) 
        Ederiv += EP_term(3, orbital,  1.00, 'iaqr,qbpa,prjb,bpr,aqr', [eps_eovv, eps_eovv_2]) 


        # Block
        Enew += EP_term(3, orbital, -1.00, 'iraq,abpr,pqjb,bpq,abpr', [eps_eovv, eps_oovv]) 
        Enew += EP_term(3, orbital,  0.25, 'icab,abpq,pqjc,cpq,abpq', [eps_eovv, eps_oovv]) 
        Enew += EP_term(3, orbital, -1.00, 'ibpr,pqab,arjq,bpr,abpq', [eps_eovv, eps_oovv]) 
        Enew += EP_term(3, orbital,  0.25, 'ibpq,pqac,acjb,bpq,acpq', [eps_eovv, eps_oovv]) 

        Ederiv += EP_term(3, orbital,  1.00, 'iraq,abpr,pqjb,bpq,abpr', [eps_eovv_2, eps_oovv]) 
        Ederiv += EP_term(3, orbital, -0.25, 'icab,abpq,pqjc,cpq,abpq', [eps_eovv_2, eps_oovv]) 
        Ederiv += EP_term(3, orbital,  1.00, 'ibpr,pqab,arjq,bpr,abpq', [eps_eovv_2, eps_oovv]) 
        Ederiv += EP_term(3, orbital, -0.25, 'ibpq,pqac,acjb,bpq,acpq', [eps_eovv_2, eps_oovv]) 


        # Block
        Enew += EP_term(3, orbital, -0.25, 'iqab,abpr,prjq,qab,prab', [eps_evoo, eps_vvoo]) 
        Enew += EP_term(3, orbital,  1.00, 'iqac,abpq,pcjb,qac,pqab', [eps_evoo, eps_vvoo]) 
        Enew += EP_term(3, orbital, -0.25, 'irpq,pqab,abjr,rab,pqab', [eps_evoo, eps_vvoo]) 
        Enew += EP_term(3, orbital,  1.00, 'icpb,pqac,abjq,qab,pqac', [eps_evoo, eps_vvoo]) 

        Ederiv += EP_term(3, orbital,  0.25, 'iqab,abpr,prjq,qab,prab', [eps_evoo_2, eps_vvoo]) 
        Ederiv += EP_term(3, orbital, -1.00, 'iqac,abpq,pcjb,qac,pqab', [eps_evoo_2, eps_vvoo]) 
        Ederiv += EP_term(3, orbital,  0.25, 'irpq,pqab,abjr,rab,pqab', [eps_evoo_2, eps_vvoo]) 
        Ederiv += EP_term(3, orbital, -1.00, 'icpb,pqac,abjq,qab,pqac', [eps_evoo_2, eps_vvoo]) 

        # Block
        Enew += EP_term(3, orbital,  1.00, 'ipbc,bqap,acjq,pbc,qac', [eps_evoo, eps_evoo]) 
        Ederiv += EP_term(3, orbital, -1.00, 'ipbc,bqap,acjq,pbc,qac', [eps_evoo_2, eps_evoo]) 
        Ederiv += EP_term(3, orbital, -1.00, 'ipbc,bqap,acjq,pbc,qac', [eps_evoo, eps_evoo_2]) 

        Enew += EP_term(3, orbital, -0.25, 'ipbd,bdac,acjp,pbd,pac', [eps_evoo, eps_evoo]) 
        Ederiv += EP_term(3, orbital,  0.25, 'ipbd,bdac,acjp,pbd,pac', [eps_evoo_2, eps_evoo]) 
        Ederiv += EP_term(3, orbital,  0.25, 'ipbd,bdac,acjp,pbd,pac', [eps_evoo, eps_evoo_2]) 

        # Break if below threshold
        if abs(Enew - Eold) < 1.e-4:
            print 'EP3 HOMO - %d converged in %d iterations' % ((ndocc - orbital/2 - 1), ep_iter)
            ep3_arr.append(Enew * 27.21138505)
            ep3_conv = True
            break

        # Newton-Raphson update
        E = Eold - (Eold - Enew) / (1 - Ederiv)

    if ep3_conv is False:
        ep3_arr.append(E)
        print 'WARNING: EP3 for orbital HOMO - %d did not converged' % (ndocc - orbital/2 - 1)


print "\nKP - Koopmans' Theorem"
print "EP2 - Electron Propagator 2\n"
print "HOMO - n         KP (eV)              EP2 (eV)              EP3 (eV)"
print "---------------------------------------------------------------------"

KP_arr = eps[:nocc][::2] * 27.21138505

for orbital in range(0, len(ep2_arr)):
    print "% 4d     % 16.4f    % 16.4f    % 16.4f" % ((len(ep2_arr)-orbital-1), KP_arr[orbital], ep2_arr[orbital], ep3_arr[orbital])


# 13.46 11.27
